proyfinal/src/viki/013/experimentInOfficeAgust.take6.output/ce6d2d93-c9e7-4f51-b868-4097055bd501.als.dat
{'cnf.clauses': '118081',
 'cnf.totvars': '69608',
 'conflict literals': '6',
 'conflicts': '5',
 'decisions': '3735',
 'memused.mb': '17.61',
 'outcome': 'UNSAT',
 'propagations': '26228',
 'restarts': '1',
 'solver.msecs': 36,
 'task.msecs': 91}
