proyfinal/src/viki/013/experimentInOfficeAgust.take6.output/ce6d2d93-c9e7-4f51-b868-4097055bd501.als.out
Reading from standard input... Use '--help' for help.
============================[ Problem Statistics ]=============================
|                                                                             |
|  Number of variables:         69608                                         |
|  Number of clauses:          118081                                         |
|  Parse time:                   0.02 s                                       |
|                                                                             |
============================[ Search Statistics ]==============================
| Conflicts |          ORIGINAL         |          LEARNT          | Progress |
|           |    Vars  Clauses Literals |    Limit  Clauses Lit/Cl |          |
===============================================================================
===============================================================================
restarts              : 1
conflicts             : 5              (139 /sec)
decisions             : 3735           (0.00 % random) (103744 /sec)
propagations          : 26228          (728515 /sec)
conflict literals     : 6              (0.00 % deleted)
Memory used           : 17.61 MB
CPU time              : 0.036002 s

UNSATISFIABLE
